w = 36;
n = 23;
measures = [|12, 36,
|3, 36,
|4, 22,
|5, 15,
|3, 24,
|5, 14,
|3, 16,
|3, 15,
|4, 11,
|3, 14,
|3, 12,
|3, 11,
|3, 10,
|3, 9,
|3, 8,
|3, 7,
|5, 4,
|3, 6,
|3, 5,
|5, 3,
|3, 4,
|4, 3,
|3, 3,
|];
initial_x = [0, 12, 15, 19, 24, 27, 32, 0, 3, 7, 10, 13, 16, 19, 22, 25, 28, 33, 0, 3, 8, 11, 15];
initial_y = [0, 0, 0, 0, 0, 0, 0, 36, 36, 36, 36, 36, 36, 36, 36, 36, 36, 36, 51, 51, 51, 51, 51];